SimulationType                MonteCarlo
NumberOfCycles                100000
PrintEvery                    50000
PrintPropertiesEvery          10000
RestartFile                   no

Forcefield                    STUMOF
UseChargesFromCIFFile         yes
cutoff                        13.170

Framework 0
FrameworkName Framework_0_final_1_1_1_P1
UnitCells 1 1 1
ExternalTemperature 298.0

Component 0 MoleculeName             helium
            MoleculeDefinition       TraPPE
            widomprobability         1.0
            CreateNumberOfMolecules  0

